benchmarks_vrp/CMT12/fixed_c_size/CMT12_4.vrp
NAME: CMT12_4
TYPE: CVRP
COMMENT: 819.56 - Cluster Nr.4
DIMENSION: 14
CAPACITY: 200
EDGE_WEIGHT_TYPE: EUC_2D
NODE_COORD_TYPE: TWOD_COORDS
NODE_COORD_SECTION: 
3 58 75
1 55 85
2 68 60
5 60 80
4 55 80
11 75 55
13 40 50
12 65 82
14 65 85
8 62 80
6 67 85
7 70 58
9 72 55
10 60 85
DEPOT_SECTION: 
13
-1
DEMAND_SECTION: 
14 40
5 10
2 30
1 20
10 30
4 10
9 10
13 0
11 20
3 20
12 10
8 30
6 20
7 20
EOF
