benchmarks_vrp/CMT12/fixed_c_size/CMT12_4.tour
NAME: CMT12_4 solution
TYPE: TOUR
TOUR_SECTION:
13 2 7 11 9 -1
13 4 1 10 14 6 12 8 5 3 -1
-1
EOF